letting input=[14,31,44,41,47,7,48,39,32,15,24,50,42,9,46,31,37,4,24,39,44,10,46,9,36]
letting output=[20,35,31,29,51,49,53,33,57,58,46,61,51,26,14,40,18,13,13,49,30,39,25,32,54,16,22,12,56,22,70,59,33,39,49]
letting MAX_OPS=604
letting num_registers=1
